62 13
63 53
54 49
24 53
32 72
40 39
45 16
43 60
1 99
71 4
17 125
100 49
77 51
6 121
96 12
9 47
27 183
21 3
27 196
20 131
19 167
8 63
37 46
73 12
39 30
1 147
73 17
14 88
59 18
32 177
3 159
10 122
12 181
6 93
87 5
47 63
17 45
21 181
17 40
24 12
60 67
22 77
24 138
98 40
30 51
22 57
30 131
98 23
21 54
82 8
